dataset/large-187.in
50
45.0
0 49 3.75 24.57
1 48 3.75 25.16
2 47 3.78 24.86
3 46 3.77 24.67
4 45 3.72 24.53
5 44 3.76 25.17
6 43 3.8 24.46
7 42 3.8 24.71
8 41 3.72 25.17
9 40 3.78 24.5
10 39 3.75 25.1
11 38 3.71 25.75
12 37 3.78 24.23
13 36 3.77 24.84
14 35 3.69 25.66
15 34 3.72 24.15
16 33 3.77 24.96
17 32 3.67 25.89
18 31 3.77 24.18
19 30 3.75 25.05
20 29 3.75 23.93
21 28 3.82 23.93
22 27 3.75 24.81
23 26 3.8 23.92
24 25 3.77 24.79
25 24 3.83 23.69
26 23 3.78 23.73
27 22 3.78 24.59
28 21 3.79 23.35
29 20 3.78 24.44
30 19 3.72 25.88
31 18 3.79 24.46
32 17 3.73 25.43
33 16 3.73 24.25
34 15 3.71 25.76
35 14 3.69 25.73
36 13 3.85 23.84
37 12 3.72 25.73
38 11 3.76 25.72
39 10 3.8 25.75
40 9 3.82 23.03
41 8 3.65 26.11
42 7 3.72 25.7
43 6 3.75 25.8
44 5 3.77 20.52
45 4 3.71 25.45
46 3 3.76 26.13
47 2 4.32 12.81
48 1 3.71 26.38
